(declare-const a Real)
(declare-const b Real)
(declare-const c Real)
(assert (= (+ a b c) 3))
(assert (> a 0))
(assert (> b 0))
(assert (> c 0))
(assert (not (<= (+ (* (pow (+ (* 36700160 (pow c 3)) (* 62914560 (pow b 3))) -1) (pow (+ (* 26214400 c (pow b 3)) (* 36700160 a (pow b 3)) (* 36700160 b (pow c 3))) 2)) (* -199229440 a (pow c 4)) (* -199229440 b (pow a 4)) (* -193269760 c (pow b 4)) (* -39845888 a (pow b 4)) (* -39845888 b (pow c 4)) (* -36700160 (pow a 2) (pow c 3)) (* -36700160 (pow a 3) (pow b 2)) (* -33886208 c (pow a 4)) (* 99614720 (pow a 3) (pow c 2)) (* 3317760 c (pow a 2) (pow b 2)) (* 176160768 a b (pow c 3)) (* 199999488 a c (pow b 3)) (* 199999488 b c (pow a 3))) 0)))
(check-sat)
(get-model)
(exit)